(set-logic QF_S)
(declare-fun var_0xINPUT_228795 () String)
(assert (and (= (len var_0xINPUT_228795) 0) (= (len var_0xINPUT_228795) 0) (not (= var_0xINPUT_228795 "fB9De3KAY9"))))
(check-sat var_0xINPUT_228795)